NAME : tsp20_27.163.tour
COMMENT : Length = 163
COMMENT : Found by LKH [Keld Helsgaun]
TYPE : TOUR
DIMENSION : 20
TOUR_SECTION
1
16
4
19
10
13
2
7
3
6
15
12
9
14
18
17
5
11
8
20
-1
EOF
